Dataset2.txt
Running Playground.mzn with Dataset2.dzn
=====UNSATISFIABLE=====
Finished in 275msec
